NAME : E-n51-k5.416064.tour
COMMENT : Length = 416064
COMMENT : Found by LKH [Keld Helsgaun] Sun Dec 17 21:56:04 2017
TYPE : TOUR
DIMENSION : 55
TOUR_SECTION
1
48
19
5
18
38
45
16
46
34
52
13
6
39
50
10
35
31
11
40
53
33
2
23
29
32
27
9
49
8
24
25
44
55
28
7
15
26
14
42
20
43
41
54
47
12
3
17
51
22
30
21
4
36
37
-1
EOF
